certificates/rado_a13_c94_N35.drat
-32 5 -35 0
10 26 -3 0
-34 -35 0
-9 -35 0
-5 -35 0
d -6 -5 -35 0
-35 0
6 9 0
-5 -32 0
-32 0
9 0
7 0
-4 0
-10 0
-30 0
-12 0
-6 0
20 0
26 0
14 0
28 0
22 0
5 0
19 0
16 0
-23 0
-17 0
-3 0
-29 0
-11 0
-31 0
0
